bacp/param_dec/inst-114-1-2089394622.eprime-param
language ESSENCE' 1.0

letting n_courses be 80
letting n_periods be 13
letting prerequisite_RelationAsSet_Explicit_1 be
        [1, 1, 1, 2, 2, 2, 2, 2, 2, 2, 3, 3, 3, 3, 3, 3, 3, 4, 4, 4, 4, 4, 4, 5, 5, 5, 5, 5, 5, 5, 5, 5, 5, 5, 6, 6, 6,
         6, 7, 7, 7, 7, 7, 7, 7, 8, 8, 8, 8, 8, 8, 8, 9, 9, 9, 9, 9, 10, 10, 10, 10, 10, 10, 11, 11, 11, 11, 11, 11, 11,
         12, 12, 12, 12, 12, 12, 12, 12, 13, 13, 13, 13, 13, 14, 14, 14, 14, 14, 14, 14, 14, 14, 15, 15, 16, 16, 16, 16,
         16, 16, 16, 17, 17, 17, 17, 17, 18, 18, 18, 18, 18, 18, 18, 18, 19, 19, 19, 19, 19, 19, 20, 20, 20, 20, 20, 20,
         20, 20, 20, 21, 21, 21, 21, 21, 21, 22, 22, 22, 22, 22, 22, 22, 22, 23, 23, 23, 23, 23, 23, 23, 23, 24, 24, 24,
         25, 25, 25, 25, 25, 25, 25, 26, 26, 27, 27, 27, 27, 28, 28, 28, 28, 28, 29, 29, 29, 29, 29, 29, 30, 30, 30, 31,
         31, 31, 32, 32, 32, 33, 33, 33, 33, 34, 34, 34, 34, 34, 34, 34, 35, 35, 35, 36, 36, 36, 37, 37, 37, 37, 38, 38,
         38, 38, 39, 39, 40, 40, 40, 40, 41, 41, 41, 41, 41, 41, 41, 41, 42, 42, 42, 43, 43, 43, 43, 44, 44, 44, 44, 44,
         44, 44, 44, 45, 45, 45, 45, 45, 45, 46, 46, 46, 46, 47, 47, 47, 47, 47, 48, 48, 48, 49, 49, 49, 49, 49, 50, 50,
         50, 50, 50, 51, 51, 51, 51, 51, 51, 51, 52, 52, 52, 53, 53, 53, 53, 53, 54, 54, 54, 54, 54, 54, 54, 55, 55, 55,
         56, 56, 56, 56, 57, 57, 57, 57, 57, 57, 57, 57, 58, 58, 58, 58, 58, 59, 59, 59, 59, 60, 60, 60, 61, 61, 61;
             int(1..321)]
letting prerequisite_RelationAsSet_Explicit_2 be
        [25, 31, 52, 25, 26, 31, 36, 37, 39, 46, 28, 37, 39, 41, 44, 48, 53, 26, 27, 40, 45, 46, 58, 27, 33, 34, 35, 43,
         44, 47, 48, 52, 55, 57, 33, 37, 46, 50, 26, 31, 32, 38, 40, 47, 55, 33, 35, 40, 47, 56, 57, 61, 35, 40, 45, 54,
         60, 34, 39, 41, 42, 54, 61, 33, 41, 42, 43, 47, 49, 57, 26, 37, 38, 44, 53, 55, 57, 61, 26, 30, 39, 48, 59, 26,
         36, 37, 47, 51, 52, 53, 59, 61, 27, 56, 26, 28, 34, 38, 43, 47, 61, 37, 40, 45, 56, 61, 28, 31, 37, 49, 51, 52,
         53, 56, 26, 29, 46, 47, 56, 61, 33, 34, 35, 36, 37, 41, 44, 50, 60, 25, 26, 27, 48, 53, 58, 25, 30, 32, 33, 35,
         40, 46, 49, 27, 30, 40, 43, 48, 57, 59, 61, 28, 42, 50, 65, 67, 69, 73, 74, 78, 79, 67, 72, 64, 67, 71, 80, 65,
         66, 69, 72, 79, 65, 70, 74, 76, 77, 79, 62, 72, 78, 68, 72, 80, 74, 75, 79, 63, 67, 68, 76, 66, 70, 72, 73, 76,
         79, 80, 62, 74, 79, 62, 64, 76, 63, 65, 74, 79, 70, 77, 78, 80, 65, 77, 64, 69, 74, 78, 62, 65, 67, 70, 72, 73,
         75, 78, 65, 70, 80, 62, 73, 78, 80, 62, 63, 64, 68, 71, 72, 77, 80, 65, 66, 68, 70, 72, 75, 66, 68, 71, 76, 63,
         65, 72, 76, 79, 62, 66, 73, 64, 68, 74, 75, 80, 63, 68, 75, 76, 80, 67, 69, 71, 76, 77, 78, 80, 63, 70, 76, 66,
         69, 70, 73, 76, 63, 65, 67, 68, 70, 71, 78, 62, 68, 76, 62, 70, 78, 80, 66, 67, 71, 73, 76, 77, 78, 79, 68, 74,
         75, 76, 79, 64, 73, 75, 79, 66, 74, 76, 65, 69, 75;
             int(1..321)]
letting course_load_Function1D be
        [2, 4, 8, 6, 2, 4, 5, 8, 9, 9, 2, 4, 9, 2, 3, 8, 2, 9, 5, 9, 9, 3, 5, 5, 4, 3, 8, 6, 6, 6, 8, 5, 3, 7, 2, 4, 8,
         7, 5, 7, 7, 3, 2, 2, 2, 8, 9, 8, 9, 7, 8, 6, 4, 4, 7, 4, 7, 7, 9, 8, 6, 5, 8, 3, 7, 9, 2, 2, 9, 2, 9, 8, 7, 9,
         5, 9, 8, 5, 8, 3;
             int(1..80)]
letting load_per_period_ub be 36
letting load_per_period_lb be 10
letting courses_per_period_ub be 9
letting courses_per_period_lb be 3
letting fin1 be 321
letting fin2 be 80
letting fin3 be 9
