bacp/param_dec/inst-114-1-2089394622.eprime-param.solution
language ESSENCE' 1.0
letting curr_Function1D be [6, 6, 2, 1, 1, 5, 1, 2, 4, 4, 4, 1, 2, 2, 3, 4, 3, 1, 1, 3, 5, 3, 1, 3, 7, 10, 8, 10, 3, 4, 7, 10, 8, 6, 10, 10, 7, 7, 10, 5, 5, 9, 5, 4, 10, 8, 8, 6, 9, 6, 3, 9, 9, 6, 2, 6, 5, 11, 7, 8, 10, 13, 12, 13, 11, 11, 11, 13, 11, 11, 9, 12, 12, 13, 12, 13, 12, 9, 13, 10]
